100
100
3000 3000 3000 3000 3000 3000 3000 3000 3000 3000 3000 3000 3000 3000 3000 3000 3000 3000 3000 3000 3000 3000 3000 3000 3000 3000 3000 3000 3000 3000 3000 3000 3000 3000 3000 3000 3000 3000 3000 3000 3000 3000 3000 3000 3000 3000 3000 3000 3000 3000 3000 3000 3000 3000 3000 3000 3000 3000 3000 3000 3000 3000 3000 3000 3000 3000 3000 3000 3000 3000 3000 3000 3000 3000 3000 3000 3000 3000 3000 3000 3000 3000 3000 3000 3000 3000 3000 3000 3000 3000 3000 3000 3000 3000 3000 3000 3000 3000 3000 3000
0 30 0
0 43 2
0 75 4
0 78 3
0 94 2
0 95 3
0 96 1
0 97 4
0 98 1
0 99 1
1 7 3
1 11 1
1 22 2
1 39 2
1 50 0
1 52 2
1 54 4
1 60 2
1 64 4
1 68 0
2 20 3
2 27 0
2 43 4
2 46 0
2 48 3
2 63 1
2 72 4
2 73 1
2 90 0
2 92 3
3 0 4
3 15 0
3 34 3
3 37 3
3 66 1
3 70 1
3 79 4
3 84 0
3 86 2
3 98 3
4 0 2
4 17 0
4 31 0
4 32 4
4 47 0
4 54 3
4 57 3
4 72 0
4 81 1
4 89 0
5 33 4
5 42 2
5 53 1
5 69 4
5 73 3
5 78 2
5 80 3
5 82 1
5 91 4
5 95 1
6 5 4
6 39 3
6 43 1
6 51 0
6 76 1
6 78 1
6 85 1
6 92 4
6 97 0
6 99 3
7 13 0
7 21 4
7 62 4
7 72 1
7 87 3
7 94 3
7 95 0
7 97 0
7 98 3
7 99 3
8 0 4
8 7 4
8 11 3
8 17 4
8 18 4
8 22 0
8 28 1
8 31 0
8 34 2
8 45 3
9 0 4
9 21 0
9 32 0
9 38 2
9 44 0
9 54 3
9 65 0
9 84 4
9 85 0
9 90 4
10 1 0
10 13 3
10 36 3
10 39 0
10 48 4
10 73 2
10 81 1
10 82 1
10 93 0
10 94 3
11 10 2
11 25 1
11 26 1
11 41 4
11 57 4
11 59 1
11 73 0
11 94 0
11 97 3
11 99 0
12 5 3
12 9 4
12 17 0
12 18 3
12 26 0
12 48 3
12 49 3
12 65 3
12 68 1
12 85 4
13 4 4
13 6 1
13 20 2
13 26 1
13 61 3
13 73 0
13 87 3
13 89 0
13 90 4
13 92 0
14 7 3
14 17 2
14 32 3
14 40 1
14 56 1
14 58 4
14 72 0
14 87 2
14 88 2
14 96 1
15 3 1
15 12 1
15 15 4
15 24 1
15 44 2
15 45 3
15 46 3
15 49 0
15 60 1
15 61 1
16 27 4
16 52 1
16 62 0
16 71 1
16 82 0
16 91 2
16 94 0
16 96 1
16 97 0
16 98 3
17 5 3
17 12 3
17 24 2
17 25 4
17 56 1
17 62 1
17 78 0
17 84 2
17 86 3
17 88 2
18 4 4
18 13 3
18 34 2
18 45 0
18 59 0
18 67 4
18 70 1
18 73 3
18 78 2
18 80 3
19 27 2
19 30 1
19 36 2
19 40 1
19 41 3
19 47 1
19 58 0
19 60 0
19 68 3
19 72 3
20 4 0
20 22 2
20 31 2
20 38 1
20 39 1
20 45 4
20 48 3
20 66 3
20 79 3
20 86 2
21 8 0
21 44 3
21 51 3
21 57 2
21 64 1
21 70 2
21 71 0
21 91 1
21 96 1
21 97 1
22 3 3
22 7 1
22 11 0
22 15 3
22 40 4
22 41 3
22 43 0
22 44 1
22 45 3
22 71 2
23 10 3
23 12 3
23 34 2
23 50 0
23 54 2
23 55 1
23 67 1
23 89 3
23 94 3
23 96 3
24 4 0
24 10 1
24 22 4
24 24 1
24 25 0
24 35 4
24 41 4
24 48 1
24 54 1
24 57 0
25 3 4
25 9 4
25 24 3
25 31 4
25 36 1
25 49 3
25 68 4
25 69 0
25 70 4
25 71 2
26 2 0
26 4 4
26 5 1
26 8 0
26 10 4
26 28 2
26 29 3
26 33 0
26 52 1
26 58 2
27 11 0
27 12 2
27 13 2
27 19 0
27 21 2
27 27 2
27 28 0
27 31 3
27 32 4
27 33 1
28 8 0
28 19 2
28 20 3
28 43 0
28 62 2
28 69 2
28 73 0
28 74 0
28 76 3
28 88 4
29 3 1
29 20 1
29 25 3
29 26 2
29 30 2
29 46 4
29 53 2
29 60 0
29 66 1
29 78 1
30 2 1
30 13 1
30 24 1
30 29 3
30 43 1
30 58 0
30 62 3
30 65 2
30 80 3
30 82 0
31 2 3
31 7 3
31 12 3
31 13 1
31 26 1
31 34 1
31 39 3
31 54 3
31 56 0
31 62 4
32 8 2
32 19 1
32 21 3
32 27 2
32 29 2
32 35 3
32 56 0
32 60 4
32 77 3
32 82 1
33 22 4
33 23 4
33 35 2
33 41 3
33 42 0
33 47 0
33 49 0
33 58 3
33 91 2
33 92 1
34 6 3
34 9 2
34 19 4
34 33 2
34 39 2
34 55 1
34 57 4
34 70 4
34 76 2
34 84 2
35 5 2
35 6 4
35 24 0
35 34 2
35 42 3
35 85 2
35 91 1
35 93 4
35 95 2
35 96 0
36 32 2
36 37 3
36 45 4
36 46 4
36 56 3
36 65 1
36 77 3
36 79 3
36 81 0
36 90 1
37 10 2
37 16 3
37 23 0
37 28 3
37 40 3
37 53 2
37 75 1
37 81 4
37 83 3
37 85 4
38 3 2
38 4 0
38 5 3
38 8 0
38 12 0
38 34 3
38 37 3
38 63 0
38 69 1
38 85 2
39 20 1
39 30 1
39 52 3
39 55 3
39 56 0
39 61 0
39 69 3
39 71 1
39 83 4
39 86 1
40 1 1
40 18 1
40 23 4
40 33 1
40 39 3
40 43 0
40 50 1
40 60 4
40 79 0
40 83 3
41 16 2
41 31 0
41 33 4
41 62 2
41 68 4
41 69 4
41 79 2
41 86 1
41 87 3
41 89 3
42 3 0
42 9 3
42 28 0
42 29 4
42 35 4
42 58 1
42 83 1
42 88 1
42 90 3
42 98 2
43 7 4
43 14 1
43 15 0
43 17 2
43 20 0
43 27 1
43 60 0
43 74 3
43 86 4
43 89 4
44 24 4
44 26 0
44 39 3
44 43 3
44 51 0
44 53 3
44 57 1
44 63 0
44 74 4
44 81 2
45 3 3
45 4 2
45 5 3
45 21 1
45 77 4
45 83 3
45 85 1
45 95 3
45 98 3
45 99 4
46 1 2
46 20 0
46 27 4
46 75 2
46 79 2
46 81 3
46 83 4
46 87 1
46 91 1
46 92 3
47 2 4
47 7 1
47 17 1
47 22 4
47 41 0
47 55 4
47 66 2
47 74 3
47 75 3
47 76 3
48 1 3
48 23 0
48 36 3
48 58 3
48 65 0
48 80 3
48 82 1
48 84 1
48 86 4
48 90 3
49 5 3
49 8 4
49 12 1
49 16 1
49 18 4
49 19 2
49 28 3
49 35 1
49 36 2
49 41 2
50 9 2
50 15 4
50 21 1
50 31 4
50 52 0
50 64 4
50 79 3
50 80 4
50 81 4
50 92 2
51 5 2
51 34 2
51 42 3
51 47 4
51 48 0
51 49 0
51 60 1
51 64 4
51 82 1
51 91 1
52 2 0
52 10 2
52 14 2
52 32 2
52 38 1
52 41 2
52 42 4
52 44 3
52 55 2
52 57 4
53 27 2
53 35 1
53 38 0
53 52 2
53 59 4
53 67 2
53 68 3
53 69 0
53 88 2
53 94 1
54 2 1
54 11 4
54 40 1
54 45 2
54 47 2
54 55 0
54 58 4
54 65 0
54 73 2
54 75 3
55 1 1
55 18 4
55 40 3
55 60 0
55 61 3
55 63 2
55 64 4
55 70 3
55 75 2
55 84 3
56 2 2
56 6 4
56 41 0
56 45 2
56 51 0
56 53 4
56 65 3
56 66 0
56 81 0
56 88 0
57 22 1
57 25 0
57 38 3
57 51 4
57 65 2
57 78 0
57 88 0
57 89 3
57 92 1
57 94 0
58 13 1
58 16 2
58 40 3
58 47 2
58 49 2
58 54 1
58 64 4
58 66 0
58 83 3
58 90 3
59 20 0
59 29 1
59 54 1
59 79 1
59 84 3
59 88 2
59 89 4
59 96 3
59 98 4
59 99 1
60 14 3
60 37 4
60 59 4
60 60 1
60 62 3
60 63 3
60 71 3
60 75 1
60 82 1
60 98 4
61 3 1
61 15 3
61 28 2
61 31 4
61 32 1
61 49 4
61 53 3
61 55 0
61 62 1
61 68 1
62 1 1
62 5 4
62 7 3
62 38 1
62 41 4
62 52 3
62 63 4
62 64 4
62 71 4
62 74 3
63 33 3
63 34 2
63 35 3
63 58 2
63 67 4
63 72 0
63 77 3
63 79 0
63 86 2
63 87 3
64 3 2
64 6 1
64 25 2
64 35 1
64 38 4
64 46 2
64 51 1
64 63 0
64 67 2
64 72 0
65 9 4
65 10 3
65 16 2
65 18 1
65 19 4
65 26 1
65 30 3
65 50 1
65 54 4
65 59 3
66 7 0
66 19 3
66 35 1
66 37 1
66 40 3
66 44 4
66 49 1
66 75 2
66 77 4
66 93 2
67 11 1
67 17 0
67 26 1
67 30 4
67 33 0
67 39 2
67 68 4
67 74 1
67 77 3
67 82 3
68 0 4
68 13 3
68 18 2
68 27 2
68 37 1
68 42 2
68 43 2
68 44 2
68 48 2
68 53 3
69 14 3
69 16 2
69 29 2
69 32 1
69 38 0
69 54 1
69 63 1
69 67 4
69 70 4
69 74 3
70 0 4
70 6 1
70 10 4
70 16 2
70 28 0
70 32 0
70 55 0
70 57 4
70 76 1
70 87 1
71 8 2
71 15 2
71 23 2
71 38 0
71 47 0
71 69 2
71 80 4
71 83 2
71 95 4
71 99 3
72 14 4
72 31 1
72 36 3
72 46 3
72 64 0
72 70 2
72 80 2
72 81 4
72 84 3
72 93 2
73 12 4
73 19 2
73 36 3
73 51 2
73 59 4
73 67 4
73 75 4
73 90 3
73 91 4
73 97 2
74 9 3
74 23 2
74 42 4
74 45 3
74 53 1
74 59 2
74 63 3
74 67 3
74 72 3
74 86 1
75 15 0
75 26 3
75 64 3
75 66 3
75 92 3
75 95 3
75 96 1
75 97 3
75 98 4
75 99 2
76 4 4
76 10 4
76 18 1
76 20 1
76 21 0
76 44 4
76 49 4
76 53 0
76 57 1
76 76 4
77 6 3
77 11 4
77 56 3
77 61 4
77 68 3
77 74 2
77 76 4
77 78 1
77 84 3
77 87 4
78 0 3
78 11 0
78 14 1
78 15 1
78 18 3
78 24 1
78 25 4
78 29 4
78 30 3
78 42 3
79 0 4
79 2 1
79 6 4
79 13 1
79 23 1
79 31 3
79 61 4
79 71 3
79 89 0
79 93 1
80 28 4
80 29 0
80 39 1
80 50 0
80 52 4
80 55 3
80 62 0
80 64 1
80 76 0
80 88 1
81 1 4
81 11 1
81 30 0
81 37 0
81 43 1
81 49 4
81 51 0
81 56 0
81 59 3
81 67 2
82 16 1
82 26 4
82 53 0
82 58 3
82 59 0
82 78 1
82 85 0
82 93 1
82 95 4
82 96 2
83 1 2
83 34 4
83 50 1
83 61 1
83 65 1
83 80 3
83 81 4
83 84 2
83 88 4
83 90 3
84 1 1
84 2 1
84 3 4
84 9 3
84 13 0
84 37 3
84 38 4
84 45 1
84 46 2
84 50 3
85 8 4
85 33 3
85 37 3
85 46 0
85 47 3
85 55 2
85 65 3
85 70 2
85 71 3
85 87 2
86 11 2
86 21 2
86 33 2
86 46 0
86 50 2
86 56 3
86 77 4
86 91 4
86 92 0
86 99 2
87 2 2
87 6 0
87 14 0
87 40 0
87 47 3
87 50 2
87 66 0
87 76 0
87 83 3
87 91 2
88 8 0
88 9 2
88 14 0
88 23 0
88 27 3
88 48 4
88 50 3
88 59 2
88 61 4
88 74 0
89 6 0
89 7 1
89 9 3
89 12 3
89 16 0
89 17 2
89 25 4
89 29 1
89 30 2
89 51 1
90 12 1
90 23 4
90 52 3
90 77 1
90 93 4
90 95 1
90 96 3
90 97 3
90 98 1
90 99 3
91 0 4
91 19 1
91 21 4
91 44 1
91 63 4
91 82 1
91 85 2
91 89 1
91 93 0
91 94 4
92 10 4
92 17 3
92 22 1
92 23 1
92 25 4
92 40 3
92 48 4
92 56 1
92 61 4
92 76 0
93 0 2
93 24 4
93 36 3
93 51 3
93 57 1
93 66 3
93 69 2
93 77 1
93 87 3
93 90 4
94 8 1
94 14 0
94 15 2
94 18 0
94 24 1
94 28 4
94 35 2
94 61 3
94 73 3
94 75 4
95 4 4
95 29 4
95 46 2
95 66 4
95 71 3
95 72 2
95 73 1
95 93 1
95 94 0
95 97 2
96 4 0
96 19 0
96 20 1
96 36 0
96 42 4
96 44 4
96 48 4
96 67 2
96 80 0
96 89 0
97 1 4
97 16 1
97 17 3
97 22 0
97 25 0
97 30 2
97 32 4
97 68 1
97 77 4
97 78 3
98 14 1
98 22 4
98 47 0
98 69 3
98 72 0
98 80 3
98 85 4
98 92 1
98 93 3
98 95 0
99 21 3
99 36 2
99 37 0
99 42 1
99 52 4
99 70 1
99 74 0
99 79 2
99 83 0
99 86 2
